%BLOCK LATTICE_CART
    -6.6012306     6.6012306     6.3301026
     6.6012306    -6.6012306     6.3301026
     6.6012306     6.6012306    -6.3301026
%ENDBLOCK LATTICE_CART

%BLOCK POSITIONS_FRAC
Li         0.150747   0.905172   0.918024
Li         0.987147   0.232723   0.081976
Li         1.655172   0.237147   1.254425
Li        -0.017277   1.400747  -0.254425
Li         0.262853  -0.155172  -0.254425
Li         1.099253   1.517277   1.254425
Li         1.267277   0.512853   1.918024
Li        -0.405172   0.349253  -0.918024
Li         0.599253  -0.655172  -0.418024
Li         0.762853   2.017277   1.418024
Li        -0.905172   0.012853  -0.754425
Li         1.767277   0.849253   1.754425
Li         0.487147   1.405172   1.754425
Li         0.650747  -0.267277  -0.754425
Li        -0.517277   0.737147  -0.418024
Li         2.155172   0.900747   1.418024
Li         0.500000   1.500000   1.000000
Li         2.250000   0.750000   1.500000
Li        -0.250000  -0.750000  -0.500000
Li         1.000000   0.000000   2.000000
Li        -0.071143   0.928857   1.357715
Li         0.571143  -0.428857  -0.357715
Li         1.678857  -0.178857   1.500000
Li        -0.678857   1.178857  -0.500000
Li         0.821143  -0.678857  -0.857715
Li         1.178857   2.678857   1.857715
Li        -0.928857   0.428857  -1.000000
Li         2.428857   1.071143   2.000000
O         0.686139   1.526099   1.769342
O         0.394631   0.943585   0.657069
O         0.578530   1.205929   1.927480
O         0.756757  -0.083203  -0.769342
O         1.286515   0.737561   0.342931
O         0.278449  -0.348950  -0.927480
O         2.276099   0.006757   1.339960
O         1.693585   0.536515   1.048954
O         1.955929  -0.471551   1.127399
O        -0.333203   1.936139  -0.339960
O         0.487561   1.644631  -0.048954
O        -0.598950   1.828530  -0.127399
O         0.493243  -0.776099  -0.339960
O        -0.036515  -0.193585  -0.048954
O         0.971551  -0.455929  -0.127399
O         0.563861   1.833203   1.339960
O         0.855369   1.012439   1.048954
O         0.671470   2.098950   1.127399
O         1.583203   0.743243   2.769342
O         0.762439   0.213485   1.657069
O         1.848950   1.221551   2.927480
O        -1.026099  -0.186139  -1.769342
O        -0.443585   0.105369  -0.657069
O        -0.705929  -0.078530  -1.927480
O         0.063861  -1.276099  -1.269342
O         0.355369  -0.693585  -0.157069
O         0.171470  -0.955929  -1.427480
O         0.993243   2.333203   2.269342
O         0.463485   1.512439   1.157069
O         1.471551   2.598950   2.427480
O        -1.526099   0.243243  -0.839960
O        -0.943585  -0.286515  -0.548954
O        -1.205929   0.721551  -0.627399
O         2.083203   0.313861   1.839960
O         1.262439   0.605369   1.548954
O         2.348950   0.421470   1.627399
O         0.256757   2.026099   1.839960
O         0.786515   1.443585   1.548954
O        -0.221551   1.705929   1.627399
O         1.186139  -0.583203  -0.839960
O         0.894631   0.237561  -0.548954
O         1.078530  -0.848950  -0.627399
O        -0.833203   0.506757  -1.269342
O        -0.012439   1.036515  -0.157069
O        -1.098950   0.028449  -1.427480
O         2.776099   1.436139   2.269342
O         2.193585   1.144631   1.157069
O         2.455929   1.328530   2.427480
Zr         0.875000   1.625000   1.750000
Zr         0.875000   0.125000  -0.750000
Zr         2.375000   0.125000   1.250000
Zr        -0.125000   2.125000  -0.250000
Zr         0.375000  -0.875000  -0.250000
Zr         0.375000   1.625000   1.250000
Zr         1.375000   0.625000   2.750000
Zr        -1.125000  -0.375000  -1.750000
La        -0.250000   0.750000   1.000000
La         1.500000   0.000000   1.500000
La         1.000000  -0.500000  -0.500000
La        -0.750000   0.250000  -1.000000
La         0.752884   1.375000   1.877884
La         0.497116  -0.125000  -0.877884
La         2.125000  -0.252884   1.122116
La        -0.375000   2.002884  -0.122116
La        -0.002884  -1.125000  -1.377884
La         1.252884   2.375000   2.377884
La        -1.375000   0.502884  -0.622116
La         2.125000   0.247116   1.622116
%ENDBLOCK POSITIONS_FRAC

fix_all_cell:   FALSE

fix_all_ions:	FALSE

snap_to_symmetry

symmetry_generate

%block species_pot
Li li_pbe.uspp.F.UPF
La la_pbe.uspp.F.UPF
O o_pbe.uspp.F.UPF
Zr zr_pbe.uspp.F.UPF
%endblock species_pot

kpoint_mp_grid 6 6 6 